(declare-const X String)
; /RegExp?\x23.{0,5}\x28\x3f[^\x29]{0,4}i.*?\x28\x3f\x2d[^\x29]{0,4}i.{0,50}\x7c\x7c/smi
(assert (not (str.in_re X (re.++ (str.to_re "/RegEx") (re.opt (str.to_re "p")) (str.to_re "#") ((_ re.loop 0 5) re.allchar) (str.to_re "(?") ((_ re.loop 0 4) (re.comp (str.to_re ")"))) (str.to_re "i") (re.* re.allchar) (str.to_re "(?-") ((_ re.loop 0 4) (re.comp (str.to_re ")"))) (str.to_re "i") ((_ re.loop 0 50) re.allchar) (str.to_re "||/smi\u{a}")))))
(check-sat)
